154
1000
3
30
109
176
46
149
61
128
131
18
188
64
223
16
136
59
139
211
173
22
81
33
71
131
242
236
49
36
7
118
198
158
76
31
159
195
174
56
166
40
249
228
37
26
34
72
59
3
15
88
195
22
10
113
3
84
29
180
199
32
40
109
143
234
7
28
167
38
68
31
40
16
16
69
121
100
56
22
229
154
5
52
136
86
53
212
104
69
10
10
170
144
43
102
57
10
135
8
16
246
206
231
195
21
127
8
47
49
150
16
119
87
54
199
205
153
102
112
102
38
31
205
62
200
25
121
229
66
192
1
110
111
42
137
7
153
109
72
238
24
40
25
38
119
238
44
13
223
191
39
154
21
83
43
